p cnf 10 50
5 -1 10 0
-5 9 -10 0
2 -6 8 0
3 -1 4 0
-10 7 -3 0
5 2 -1 0
5 -4 3 0
5 -1 -4 0
3 -2 -10 0
-8 5 -1 0
3 7 2 0
-4 -3 7 0
-10 -5 -1 0
5 10 -1 0
10 -5 -1 0
2 9 4 0
2 3 7 0
-9 7 -3 0
-10 7 2 0
9 -1 2 0
-8 -7 -2 0
-8 -6 2 0
4 -6 -8 0
-3 10 1 0
9 3 8 0
-4 2 -3 0
-4 -2 7 0
-2 -9 8 0
8 -7 10 0
-4 2 9 0
6 -5 1 0
-7 -9 -8 0
4 -9 2 0
-7 -6 -9 0
4 -7 3 0
-4 -3 -10 0
8 -9 -7 0
-3 8 5 0
-6 -4 8 0
-2 -6 -10 0
-2 9 -5 0
7 -2 -9 0
1 9 -4 0
5 -4 -1 0
6 -2 7 0
-8 -10 -4 0
-10 -4 -3 0
-7 10 -1 0
6 1 4 0
-1 5 9 0